1 51 2
-321 -939 -551 -948 -390 -200 -30 -734 -459 -625 -858 -679 -709 -847 -865 -741 -295 -631 -739 -173 -297 -861 -398 -123 -720 -626 -821 -55 -792 -398 -184 -175 -216 -953 -668 -126 -866 -741 -553 -868 -710 -827 -2 -491 -770 -675 -153 -371 -221 -584 0 
-680 -106 -494 -139 -665 -780 -880 -257 -517 -398 -230 -397 -316 -78 -204 -197 -668 -289 -304 -797 -644 -173 -548 -866 -333 -444 -270 -879 -192 -637 -894 -772 -699 -55 -236 -966 -82 -274 -458 -159 -323 -187 -898 -513 -294 -239 -916 -691 -802 -379 0 
1023 1117 1170 903 1002 1046 1087 1055 904 1138 945 921 1088 908 995 841 1065 736 1113 776 887 1012 1137 828 1200 992 1135 886 992 898 1264 1144 1078 1042 1103 1265 1042 1050 944 881 1088 870 917 1142 1208 796 1036 973 1057 869 1 
25284 
